natom 16
ntypat 2
znucl  74 8
typat  4*1 12*2
acell  9.94525065 9.73265646 14.39574465
rprim  1.00000000 0.00000000 -0.03116653
 0.00000000 1.00000000 0.00000000
 0.00000000 0.00000000 0.99951421
xred 
0.25521000  0.73266000  0.28438000
0.74479000  0.23266000  0.21562000
0.74479000  0.26734000  0.71562000
0.25521000  0.76734000  0.78438000
0.74836000  0.32687000  0.99314000
0.25164000  0.82687000  0.50686000
0.25164000  0.67313000  0.00686000
0.74836000  0.17313000  0.49314000
0.03714000  0.03910000  0.78931000
0.96286000  0.53910000  0.71069000
0.96286000  0.96090000  0.21069000
0.03714000  0.46090000  0.28931000
0.54594000  0.95901000  0.78919000
0.45406000  0.45901000  0.71081000
0.45406000  0.04099000  0.21081000
0.54594000  0.54099000  0.28919000

ecut   10
kptopt 1
ngkpt  1 1 1
ixc    1
nstep  1
toldfe 1.0E+05
iscf   5
prtden 0
prtwf  0
prteig 0
 chkprim 0
