ABINIT generated POSCAR file. Title stri
  0.999999999999995     
     5.3321473588883679   -0.0000000000000000   -0.0095322955091757
     0.0000000000000003    5.2896410389657831   -0.0000000000000000
    -0.0927188680852669    0.0000000000000005    7.7503158252719828
   W    O 
     4    12
Direct
  0.7531937502112548  0.7687658567262897  0.7807629642444823
  0.2468062497887532  0.2687658567262937  0.7192370357555177
  0.2468062497887532  0.2312341432737049  0.2192370357555207
  0.7531937502112548  0.7312341432737103  0.2807629642444819
  0.5255448927524877  0.0282483263434477  0.7720904487085334
  0.4744551072475106  0.5282483263434389  0.7279095512914666
  0.4744551072475106  0.9717516736565611  0.2279095512914648
  0.5255448927524877  0.4717516736565580  0.2720904487085347
  0.9672581518372204  0.4718020957043688  0.7277673707675194
  0.0327418481627965  0.9718020957043674  0.7722326292324806
  0.0327418481627965  0.5281979042956326  0.2722326292324760
  0.9672581518372204  0.0281979042956306  0.2277673707675246
  0.7512971657973704  0.7077410663722560  0.0065779177087182
  0.2487028342026315  0.2077410663722576  0.4934220822912817
  0.2487028342026315  0.2922589336277429  0.9934220822912835
  0.7512971657973704  0.7922589336277440  0.5065779177087165
 
  0.00000000E+00  0.00000000E+00  0.00000000E+00
  0.00000000E+00  0.00000000E+00  0.00000000E+00
  0.00000000E+00  0.00000000E+00  0.00000000E+00
  0.00000000E+00  0.00000000E+00  0.00000000E+00
  0.00000000E+00  0.00000000E+00  0.00000000E+00
  0.00000000E+00  0.00000000E+00  0.00000000E+00
  0.00000000E+00  0.00000000E+00  0.00000000E+00
  0.00000000E+00  0.00000000E+00  0.00000000E+00
  0.00000000E+00  0.00000000E+00  0.00000000E+00
  0.00000000E+00  0.00000000E+00  0.00000000E+00
  0.00000000E+00  0.00000000E+00  0.00000000E+00
  0.00000000E+00  0.00000000E+00  0.00000000E+00
  0.00000000E+00  0.00000000E+00  0.00000000E+00
  0.00000000E+00  0.00000000E+00  0.00000000E+00
  0.00000000E+00  0.00000000E+00  0.00000000E+00
  0.00000000E+00  0.00000000E+00  0.00000000E+00
