natom 10
ntypat 3
znucl  83 26 8
typat  2*1 2*2 6*3
acell  10.75248368 10.75248368 10.75248368
rprim  0.56543862 -0.28271931 -0.28271931
 0.00000000 0.48968421 -0.48968421
 0.82479038 0.82479038 0.82479038
xred 
0.28930873  0.28930873  0.28930873
0.78930873  0.78930873  0.78930873
0.00316666  0.00316666  0.00316666
0.50316666  0.50316666  0.50316666
0.21872786  0.74489837  0.74489837
0.74489837  0.21872786  0.74489837
0.74489837  0.74489837  0.21872786
0.24489837  0.71872786  0.24489837
0.24489837  0.24489837  0.71872786
0.71872786  0.24489837  0.24489837

ecut   10
kptopt 1
ngkpt  1 1 1
ixc    1
nstep  1
toldfe 1.0E+05
iscf   5
prtden 0
prtwf  0
prteig 0
 chkprim 0
