BiFeO3                                  
   5.51543300000000     
     0.5835292764728273    0.0000000000000000    0.8530557668857986
    -0.2917646382311443    0.5053511772770110    0.8530557668856424
    -0.2917646382311443   -0.5053511772770110    0.8530557668856424
   Bi   Fe   O 
     2     2     6
Direct
  0.2893087319803362  0.2893087319803362  0.2893087319803362
  0.7893087319803362  0.7893087319803362  0.7893087319803362
  0.0031666563890557  0.0031666563890557  0.0031666563890557
  0.5031666563890558  0.5031666563890558  0.5031666563890558
  0.2187278632747984  0.7448983741779036  0.7448983741779036
  0.7448983741779036  0.2187278632747984  0.7448983741779036
  0.7448983741779036  0.7448983741779036  0.2187278632747984
  0.2448983741779037  0.7187278632747982  0.2448983741779037
  0.2448983741779037  0.2448983741779037  0.7187278632747982
  0.7187278632747982  0.2448983741779037  0.2448983741779037
 
  0.00000000E+00  0.00000000E+00  0.00000000E+00
  0.00000000E+00  0.00000000E+00  0.00000000E+00
  0.00000000E+00  0.00000000E+00  0.00000000E+00
  0.00000000E+00  0.00000000E+00  0.00000000E+00
  0.00000000E+00  0.00000000E+00  0.00000000E+00
  0.00000000E+00  0.00000000E+00  0.00000000E+00
  0.00000000E+00  0.00000000E+00  0.00000000E+00
  0.00000000E+00  0.00000000E+00  0.00000000E+00
  0.00000000E+00  0.00000000E+00  0.00000000E+00
  0.00000000E+00  0.00000000E+00  0.00000000E+00
