natom 5
ntypat 3
znucl  56 22 8
typat  1*1 1*2 3*3
acell  7.55890453 7.55890453 7.55890453
rprim  1.00000000 0.00000000 0.00000000
 0.00000000 1.00000000 0.00000000
 0.00000000 0.00000000 1.00000000
xred 
0.00000000  0.00000000  0.00000000
0.50000000  0.50000000  0.50000000
0.50000000  0.50000000  0.00000000
0.50000000  0.00000000  0.50000000
0.00000000  0.50000000  0.50000000

ecut   10
kptopt 1
ngkpt  1 1 1
ixc    1
nstep  1
toldfe 1.0E+05
iscf   5
prtden 0
prtwf  0
prteig 0
 chkprim 0
