Ba Ti  O 
 1.0000000000000000
     4.0000000157225362    0.0000000000000000    0.0000000000000000
     0.0000000000000000    4.0000000157225362    0.0000000000000000
     0.0000000000000000    0.0000000000000000    4.0000000157225362
   1   1   3
Cartesian
  0.0000000000000000  0.0000000000000000  0.0000000000000000
  2.0000000078612681  2.0000000078612681  2.0000000078612681
  2.0000000078612681  2.0000000078612681  0.0000000000000000
  2.0000000078612681  0.0000000000000000  2.0000000078612681
  0.0000000000000000  2.0000000078612681  2.0000000078612681
